2
75
112
40	36
1	1	5	11	
2	1	7	11	
3	2	6	17	25	3	
4	2	7	16	26	3	
5	2	7	15	19	9	
6	1	7	17	
7	2	7	18	19	3	
8	2	7	17	27	2	
9	2	34	3	32	3	
10	1	8	9	
11	1	20	5	
12	1	16	9	
13	1	4	10	
14	1	5	16	
15	2	17	5	31	3	
16	1	30	2	
17	2	32	3	31	3	
18	2	17	7	24	2	
19	1	6	11	
20	2	6	11	4	9	
21	2	8	15	32	2	
22	2	6	18	7	9	
23	1	6	13	
24	2	7	17	15	6	
25	2	13	9	15	5	
26	1	5	14	
27	2	18	9	28	3	
28	2	4	11	16	2	
29	2	13	9	14	8	
30	1	12	10	
31	2	4	12	17	4	
32	1	30	4	
33	1	31	3	
34	2	7	14	6	14	
35	2	17	10	16	8	
36	2	6	12	4	10	
37	2	5	11	16	4	
38	2	5	12	6	10	
39	1	16	4	
40	2	5	15	16	5	
41	1	4	9	
42	2	5	8	18	7	
43	1	33	3	
44	1	12	6	
45	1	36	3	
46	2	6	16	27	3	
47	1	9	7	
48	1	34	2	
49	1	26	2	
50	2	17	6	34	4	
51	1	34	4	
52	1	22	3	
53	2	7	16	6	9	
54	1	11	7	
55	1	5	9	
56	2	22	4	11	4	
57	1	29	2	
58	1	7	18	
59	1	16	4	
60	1	4	16	
61	2	8	8	21	2	
62	1	10	10	
63	1	5	13	
64	2	6	16	36	4	
65	1	6	18	
66	1	6	13	
67	2	7	13	20	8	
68	2	6	16	8	11	
69	1	26	3	
70	2	7	12	18	8	
71	1	13	6	
72	2	16	7	34	3	
73	2	16	10	12	5	
74	1	27	4	
75	2	4	16	32	3	
